tsp_instances/TSP50/instance42.tsp
NODE_COORD_SECTION
0 164 104
1 104 22
2 183 194
3 190 30
4 11 197
5 60 61
6 196 185
7 183 124
8 152 185
9 109 93
10 129 92
11 159 158
12 135 121
13 19 61
14 45 71
15 6 74
16 9 111
17 29 85
18 116 43
19 195 197
20 90 80
21 44 163
22 149 55
23 34 181
24 109 148
25 180 10
26 71 133
27 17 80
28 166 126
29 62 30
30 38 138
31 185 24
32 39 88
33 104 200
34 141 182
35 108 181
36 71 11
37 19 92
38 14 5
39 183 0
40 27 79
41 166 192
42 84 114
43 17 114
44 160 157
45 170 25
46 147 84
47 92 200
48 54 99
49 194 116
