tsp_instances/TSP50/instance42.opt.tour
TOUR_SECTION
1
13
25
27
43
49
33
15
6
21
10
11
47
23
4
32
40
26
46
19
2
37
30
39
14
16
28
41
18
38
17
44
31
22
24
5
48
34
36
35
9
42
3
20
7
12
45
29
8
50
-1